Welcome to the CBC MILP Solver 
Version: 2.10.12 
Build Date: Jun 17 2025 

command line - cbc -solve -quit (default strategy 1)
Presolve 1200 (0) rows, 4800 (-1) columns and 82143 (0) elements
0 infeas 0, obj 0 - mu 0.1, its 0, 0 interior
1 infeas 0.015540457, obj 0.019992502 - mu 0.1, its 2, 800 interior
2 infeas 0.01055022, obj 5.0992645 - mu 0.1, its 105, 1545 interior
3 infeas 0.0087468153, obj 10.12705 - mu 0.1, its 105, 1609 interior
4 infeas 0.0084812342, obj 14.902251 - mu 0.1, its 105, 1721 interior
5 infeas 0.0099179182, obj 20.000334 - mu 0.1, its 105, 1746 interior
6 infeas 0.0078165347, obj 25.056187 - mu 0.1, its 105, 1778 interior
7 infeas 0.0061950879, obj 26.581891 - mu 0.03333, its 105, 1780 interior
8 infeas 0.0040922979, obj 28.097087 - mu 0.03333, its 105, 1790 interior
9 infeas 0.0042114507, obj 29.742289 - mu 0.03333, its 105, 1810 interior
10 infeas 0.0026888124, obj 31.234593 - mu 0.03333, its 105, 1830 interior
11 infeas 0.0030454711, obj 32.858052 - mu 0.03333, its 105, 1849 interior
12 infeas 0.003743634, obj 34.418634 - mu 0.03333, its 105, 1850 interior
13 infeas 0.0021186284, obj 34.929704 - mu 0.011108889, its 105, 1871 interior
14 infeas 0.0010532857, obj 35.456797 - mu 0.011108889, its 105, 1878 interior
15 infeas 0.0010102048, obj 35.972216 - mu 0.011108889, its 105, 1898 interior
16 infeas 0.0011729518, obj 36.497245 - mu 0.011108889, its 105, 1917 interior
17 infeas 0.001428488, obj 37.033755 - mu 0.011108889, its 105, 1931 interior
18 infeas 0.0012814592, obj 37.576591 - mu 0.011108889, its 105, 1944 interior
19 infeas 0.00074895767, obj 37.743438 - mu 0.0037025927, its 105, 1960 interior
20 infeas 0.00060939142, obj 37.91979 - mu 0.0037025927, its 105, 1981 interior
21 infeas 0.00050586703, obj 38.070649 - mu 0.0037025927, its 105, 2004 interior
22 infeas 0.00054418169, obj 38.239781 - mu 0.0037025927, its 105, 2017 interior
23 infeas 0.00049473888, obj 38.405151 - mu 0.0037025927, its 105, 2031 interior
24 infeas 0.00058395163, obj 38.571064 - mu 0.0037025927, its 105, 2053 interior
25 infeas 0.00025698406, obj 38.627996 - mu 0.0012340741, its 105, 2067 interior
26 infeas 0.00016557549, obj 38.670167 - mu 0.0012340741, its 105, 2067 interior
27 infeas 0.00016709435, obj 38.732243 - mu 0.0012340741, its 105, 2069 interior
28 infeas 0.00017056119, obj 38.790183 - mu 0.0012340741, its 105, 2075 interior
29 infeas 0.00012155736, obj 38.847804 - mu 0.0012340741, its 105, 2078 interior
30 infeas 0.00012234196, obj 38.908714 - mu 0.0012340741, its 105, 2078 interior
31 infeas 8.0602122e-05, obj 38.927084 - mu 0.00041131691, its 105, 2078 interior
32 infeas 5.5944932e-05, obj 38.942687 - mu 0.00041131691, its 105, 2082 interior
33 infeas 5.8944713e-05, obj 38.961245 - mu 0.00041131691, its 105, 2095 interior
34 infeas 5.8344581e-05, obj 38.979824 - mu 0.00041131691, its 105, 2102 interior
35 infeas 6.0247742e-05, obj 38.995946 - mu 0.00041131691, its 105, 2102 interior
36 infeas 4.7789058e-05, obj 39.013035 - mu 0.00041131691, its 105, 2105 interior
37 infeas 2.7246079e-05, obj 39.017876 - mu 0.00013709193, its 105, 2114 interior
38 infeas 1.3935769e-05, obj 39.023314 - mu 0.00013709193, its 105, 2128 interior
39 infeas 2.0969503e-05, obj 39.029096 - mu 0.00013709193, its 105, 2145 interior
40 infeas 1.9931297e-05, obj 39.034763 - mu 0.00013709193, its 105, 2145 interior
41 infeas 1.8781137e-05, obj 39.040176 - mu 0.00013709193, its 105, 2147 interior
42 infeas 1.9507389e-05, obj 39.045632 - mu 0.00013709193, its 105, 2150 interior
43 infeas 9.046123e-06, obj 39.04752 - mu 4.5692739e-05, its 105, 2157 interior
44 infeas 4.8452455e-06, obj 39.049387 - mu 4.5692739e-05, its 105, 2167 interior
45 infeas 4.7835843e-06, obj 39.05122 - mu 4.5692739e-05, its 105, 2180 interior
46 infeas 4.4063209e-06, obj 39.053021 - mu 4.5692739e-05, its 105, 2196 interior
47 infeas 4.3553246e-06, obj 39.054841 - mu 4.5692739e-05, its 105, 2212 interior
48 infeas 6.4968562e-06, obj 39.056582 - mu 4.5692739e-05, its 105, 2210 interior
49 infeas 3.0945703e-06, obj 39.057173 - mu 1.522939e-05, its 105, 2198 interior
50 infeas 1.8020411e-06, obj 39.057785 - mu 1.522939e-05, its 105, 2177 interior
51 infeas 1.9746379e-06, obj 39.058375 - mu 1.522939e-05, its 105, 2138 interior
52 infeas 1.7503374e-06, obj 39.058998 - mu 1.522939e-05, its 105, 2138 interior
sum of infeasibilities 0.0389422 - average 3.24518e-05, 2663 fixed columns
Presolve 1200 (0) rows, 2138 (-2663) columns and 27871 (-54272) elements
0  Obj 39.058375 Primal inf 0.013769009 (400) Dual inf 2.0687251e+13 (2138)
73  Obj 39.058375 Primal inf 0.0068307089 (327) Dual inf 2.2182003e+13 (2065)
117  Obj 39.058375 Primal inf 0.0055114777 (283) Dual inf 2.009502e+13 (2021)
168  Obj 39.058375 Primal inf 0.0047664477 (231) Dual inf 1.5980224e+13 (1969)
230  Obj 39.058375 Primal inf 0.0037767948 (169) Dual inf 1.2898017e+13 (1907)
307  Obj 39.058375 Primal inf 0.0026743705 (98) Dual inf 8.1601487e+12 (1831)
404  Obj 39.058375 Primal inf 0.00049201548 (37) Dual inf 2.4212339e+12 (1738)
463  Obj 39.058375 Primal inf 1.3213801e-05 (5) Dual inf 6.2184081e+11 (1708)
546  Obj 39.058375 Primal inf 1.7965624e-06 (1) Dual inf 4.0402682e+11 (1660)
671  Obj 39.058375 Dual inf 0.50293337 (400)
744  Obj 39.058375 Dual inf 0.50293337 (400)
884  Obj 39.058375 Dual inf 0.50293337 (400)
1008  Obj 39.058375 Dual inf 0.50293337 (400)
1094  Obj 39.058375 Dual inf 0.50293337 (400)
1179  Obj 39.058375 Dual inf 0.50293337 (400)
1237  Obj 39.058375 Dual inf 0.50293337 (400)
1290  Obj 39.058375 Dual inf 0.50293337 (400)
1346  Obj 39.065734 Dual inf 59827.768 (1260)
1445  Obj 39.354528 Dual inf 185178.48 (1180)
1534  Obj 39.670271 Dual inf 500605.4 (1122)
1633  Obj 40.432769 Dual inf 237966.87 (1050)
1732  Obj 41.358692 Dual inf 315828.06 (954)
1831  Obj 43.555382 Dual inf 696489.7 (895)
1930  Obj 59.074994 Dual inf 581795.11 (836)
2023  Obj 99.527869 Dual inf 493544.47 (739)
2123  Obj 137.94116 Dual inf 369479.96 (752)
End of values pass after 2138 iterations
2138  Obj 145.09333 Dual inf 548541.84 (787)
Perturbing problem by 0.001% of 13.351398 - largest nonzero change 8.8370481e-05 ( 0.0009870811%) - largest zero change 1.9944433e-05
2197  Obj 154.30904 Dual inf 9408466.4 (643)
2268  Obj 174.40064 Dual inf 2416378.2 (578)
2339  Obj 206.61365 Dual inf 4048391.9 (809)
2407  Obj 240.87727 Dual inf 1117768.8 (689)
2478  Obj 270.65129 Dual inf 2586473.1 (718)
2559  Obj 284.49029 Dual inf 4503729.8 (893)
2639  Obj 295.70184 Dual inf 2418669.6 (662)
2734  Obj 307.54135 Dual inf 250820.33 (598)
2830  Obj 316.42856 Dual inf 3209328 (987)
2929  Obj 322.23859 Dual inf 972194.01 (742)
3028  Obj 326.87779 Dual inf 1007896.6 (836)
3127  Obj 334.91521 Dual inf 595099.07 (756)
3226  Obj 343.81444 Dual inf 3861861.8 (815)
3325  Obj 352.61869 Dual inf 1331137.6 (800)
3424  Obj 362.66966 Dual inf 439271.95 (831)
3523  Obj 368.296 Dual inf 482729.45 (774)
3622  Obj 371.3811 Dual inf 163792.46 (795)
3710  Obj 372.63785 Dual inf 170391.59 (863)
3809  Obj 375.33647 Dual inf 295022.53 (832)
3883  Obj 377.12049 Dual inf 259017.09 (843)
3939  Obj 379.47441 Dual inf 382883.12 (802)
4038  Obj 388.87211 Dual inf 298241.07 (836)
4116  Obj 393.67878 Dual inf 95815.673 (766)
4215  Obj 397.6764 Dual inf 471684.33 (840)
4305  Obj 399.87357 Dual inf 812570.36 (858)
4404  Obj 399.9965 Dual inf 112.07461 (714)
4503  Obj 399.9986 Dual inf 342.17873 (675)
4595  Obj 399.99946 Dual inf 402.80369 (665)
4662  Obj 399.99982 Dual inf 53.677202 (664)
4733  Obj 400
4733  Obj 400 Primal inf 5.9617808e-06 (1) Dual inf 3.1383531e+12 (879)
4734  Obj 400
Optimal - objective value 400
0  Obj 400
Optimal - objective value 400
After Postsolve, objective 400, infeasibilities - dual 0 (0), primal 0 (0)
0  Obj 400
Optimal - objective value 400
0  Obj 400
Optimal - objective value 400
0  Obj 400
Optimal - objective value 400
Optimal objective 400 - 0 iterations time 1.792, Idiot 1.75
Continuous objective value is 400 - 1.79 seconds
Optimal - objective value 400
Optimal - objective value 400
Optimal - objective value 400
Optimal - objective value -400
Optimal - objective value -400
Optimal - objective value -400
Exiting on maximum time
Partial search - best objective -1e+50 (best possible 400), took 0 iterations and 0 nodes (2.00 seconds)
Maximum depth 0, 0 variables fixed on reduced cost
Cuts at root node changed objective from 400 to 400
Probing was tried 0 times and created 0 cuts of which 0 were active after adding rounds of cuts (0.000 seconds)
Gomory was tried 0 times and created 0 cuts of which 0 were active after adding rounds of cuts (0.000 seconds)
Knapsack was tried 0 times and created 0 cuts of which 0 were active after adding rounds of cuts (0.000 seconds)
Clique was tried 0 times and created 0 cuts of which 0 were active after adding rounds of cuts (0.000 seconds)
MixedIntegerRounding2 was tried 0 times and created 0 cuts of which 0 were active after adding rounds of cuts (0.000 seconds)
FlowCover was tried 0 times and created 0 cuts of which 0 were active after adding rounds of cuts (0.000 seconds)
TwoMirCuts was tried 0 times and created 0 cuts of which 0 were active after adding rounds of cuts (0.000 seconds)
ZeroHalf was tried 0 times and created 0 cuts of which 0 were active after adding rounds of cuts (0.000 seconds)

Result - Stopped on time limit

No feasible solution found
Upper bound:                    400.000
Enumerated nodes:               0
Total iterations:               0
Time (CPU seconds):             2.01
Time (Wallclock seconds):       2.01

Total time (CPU seconds):       2.01   (Wallclock seconds):       2.01

